
Gurobi 11.0.3 (linux64) logging started Wed 20 Nov 2024 02:14:01 AM CST

Set parameter LogFile to value "/home/dlcole3/graph_abstraction/hierarchical_graphs/git_storage/CS1/HP_low_reserves/gurobi_logs/monolith/logfile9.log"
Set parameter NodefileStart to value 0.0005
Set parameter TimeLimit to value 7200

Gurobi 11.0.3 (linux64) logging started Wed 20 Nov 2024 02:14:50 AM CST

Set parameter LogFile to value "/home/dlcole3/graph_abstraction/hierarchical_graphs/git_storage/CS1/HP_low_reserves/gurobi_logs/monolith/logfile9.log"
Set parameter TimeLimit to value 7200
Gurobi Optimizer version 11.0.3 build v11.0.3rc0 (linux64 - "Ubuntu 18.04.3 LTS")

CPU model: Intel(R) Xeon(R) CPU E5-2698 v4 @ 2.20GHz, instruction set [SSE2|AVX|AVX2]
Thread count: 40 physical cores, 80 logical processors, using up to 20 threads

Optimize a model with 1105538 rows, 641709 columns and 4646693 nonzeros
Model fingerprint: 0x333e3852
Variable types: 599982 continuous, 41727 integer (41727 binary)
Coefficient statistics:
  Matrix range     [5e-02, 2e+04]
  Objective range  [2e-01, 8e+04]
  Bounds range     [5e-02, 2e+05]
  RHS range        [2e-19, 7e+03]
Presolve removed 254079 rows and 123983 columns (presolve time = 5s) ...
Presolve removed 263359 rows and 124883 columns (presolve time = 10s) ...
Presolve removed 266747 rows and 125999 columns (presolve time = 15s) ...
Presolve removed 267154 rows and 126211 columns (presolve time = 20s) ...
Presolve removed 267256 rows and 126211 columns (presolve time = 25s) ...
Presolve removed 267276 rows and 126281 columns (presolve time = 30s) ...
Sparsify removed 134384 nonzeros (3%)
Presolve removed 267276 rows and 208075 columns (presolve time = 35s) ...
Presolve removed 267276 rows and 125159 columns
Presolve time: 35.36s
Presolved: 838262 rows, 516550 columns, 4468731 nonzeros
Variable types: 476541 continuous, 40009 integer (39940 binary)

Deterministic concurrent LP optimizer: primal simplex, dual simplex, and barrier
Showing barrier log only...

Root barrier log...

Elapsed ordering time = 5s
Elapsed ordering time = 10s
Elapsed ordering time = 41s
Elapsed ordering time = 47s
Elapsed ordering time = 50s
Elapsed ordering time = 55s
Elapsed ordering time = 60s
Elapsed ordering time = 68s
Elapsed ordering time = 71s
Elapsed ordering time = 76s
Elapsed ordering time = 80s
Elapsed ordering time = 85s
Elapsed ordering time = 95s
Elapsed ordering time = 101s
Elapsed ordering time = 105s
Elapsed ordering time = 110s
Elapsed ordering time = 115s
Ordering time: 118.43s

Barrier statistics:
 Dense cols : 288
 AA' NZ     : 4.831e+07
 Factor NZ  : 5.120e+08 (roughly 5.0 GB of memory)
 Factor Ops : 2.742e+12 (roughly 10 seconds per iteration)
 Threads    : 17

                  Objective                Residual
Iter       Primal          Dual         Primal    Dual     Compl     Time
   0  -2.10919039e+11 -1.80144127e+13  1.30e+04 1.04e+04  1.16e+08   178s
   1  -1.43633578e+11 -1.50938773e+13  9.52e+03 1.74e+05  8.26e+07   183s
   2  -1.00931536e+11 -1.11086125e+13  6.98e+03 7.36e+04  5.58e+07   187s
   3  -5.52834900e+10 -7.30446672e+12  4.07e+03 2.11e+04  3.09e+07   193s
   4  -1.69617975e+10 -3.33755617e+12  1.45e+03 7.24e+02  1.08e+07   198s
   5  -4.67627635e+09 -1.32931880e+12  6.08e+02 7.91e+02  4.07e+06   204s
   6   1.61119412e+09 -7.60985009e+11  2.06e+02 2.71e+02  1.43e+06   210s
   7   3.55613300e+09 -3.43718127e+11  8.75e+01 2.37e+01  5.16e+05   217s
   8   4.24556731e+09 -1.61568146e+11  3.01e+01 7.07e+00  1.75e+05   225s
   9   3.35790222e+09 -7.79143662e+10  1.20e+01 5.81e+00  6.84e+04   232s
  10   1.83655112e+09 -2.57712537e+10  4.94e+00 6.28e+00  2.10e+04   239s
  11   9.22581372e+08 -1.07465418e+10  2.30e+00 2.07e+00  8.07e+03   248s
  12   4.25265339e+08 -5.18431897e+09  9.28e-01 8.83e-01  3.57e+03   256s
  13   2.26417533e+08 -2.61146171e+09  4.00e-01 4.22e-01  1.73e+03   264s
  14   1.12005203e+08 -1.23568020e+09  1.08e-01 1.93e-01  7.90e+02   272s
  15   7.86748014e+07 -5.29307458e+08  3.61e-02 8.42e-02  3.52e+02   280s
  16   6.88485592e+07 -3.16997912e+08  2.11e-02 5.25e-02  2.23e+02   288s
  17   5.97598367e+07 -1.47360271e+08  1.14e-02 2.73e-02  1.20e+02   296s
  18   5.33537659e+07 -7.62660729e+07  6.53e-03 1.70e-02  7.48e+01   305s
  19   4.64827482e+07 -9.05967343e+06  2.86e-03 6.76e-03  3.20e+01   314s
  20   4.27700526e+07  1.29161570e+07  1.67e-03 3.51e-03  1.72e+01   324s
  21   4.00895591e+07  2.31484239e+07  9.39e-04 1.98e-03  9.77e+00   333s
  22   3.86413631e+07  2.82314478e+07  6.24e-04 1.18e-03  6.00e+00   342s
  23   3.78788448e+07  3.06561619e+07  4.76e-04 7.72e-04  4.17e+00   351s
  24   3.72676279e+07  3.18087237e+07  3.64e-04 5.75e-04  3.15e+00   360s
  25   3.69130732e+07  3.29640260e+07  2.99e-04 3.85e-04  2.28e+00   369s
  26   3.63536913e+07  3.38230691e+07  2.04e-04 2.29e-04  1.46e+00   377s
  27   3.60665648e+07  3.41433504e+07  1.56e-04 1.70e-04  1.11e+00   386s
  28   3.59329308e+07  3.42701337e+07  1.34e-04 1.47e-04  9.60e-01   395s
  29   3.56959870e+07  3.44894808e+07  9.58e-05 1.07e-04  6.97e-01   404s
  30   3.55182708e+07  3.46030928e+07  6.83e-05 8.57e-05  5.28e-01   412s
  31   3.54206737e+07  3.46966655e+07  5.39e-05 6.90e-05  4.18e-01   421s
  32   3.53365752e+07  3.48373491e+07  4.06e-05 4.24e-05  2.88e-01   430s
  33   3.52690742e+07  3.49018250e+07  3.06e-05 3.02e-05  2.12e-01   439s
  34   3.52302499e+07  3.49346486e+07  2.47e-05 2.40e-05  1.71e-01   447s
  35   3.51880401e+07  3.49720804e+07  1.83e-05 1.73e-05  1.25e-01   456s
  36   3.51259445e+07  3.49907465e+07  8.84e-06 1.38e-05  7.80e-02   466s
  37   3.51068652e+07  3.50176961e+07  6.11e-06 8.85e-06  5.14e-02   475s
  38   3.50991241e+07  3.50370469e+07  5.36e-06 5.06e-06  3.58e-02   484s
  39   3.50891597e+07  3.50407834e+07  5.02e-06 4.30e-06  2.79e-02   492s
  40   3.50824425e+07  3.50439915e+07  4.87e-06 3.70e-06  2.22e-02   501s
  41   3.50766247e+07  3.50532079e+07  3.41e-06 2.00e-06  1.35e-02   511s
  42   3.50696286e+07  3.50601653e+07  2.10e-06 6.46e-07  5.46e-03   521s
  43   3.50662191e+07  3.50625296e+07  1.55e-06 2.03e-07  2.13e-03   532s
  44   3.50644538e+07  3.50628258e+07  4.40e-07 1.51e-07  9.39e-04   545s
  45   3.50641262e+07  3.50634076e+07  4.80e-07 4.77e-08  4.15e-04   560s
  46   3.50639048e+07  3.50636343e+07  2.69e-07 1.43e-08  1.56e-04   572s
  47   3.50638120e+07  3.50636661e+07  1.67e-07 7.36e-09  8.41e-05   583s
  48   3.50637399e+07  3.50637021e+07  7.05e-08 4.48e-09  2.18e-05   594s
  49   3.50637169e+07  3.50637145e+07  7.18e-08 7.05e-09  1.37e-06   604s
  50   3.50637165e+07  3.50637160e+07  7.81e-07 1.36e-08  2.50e-07   614s
  51   3.50637162e+07  3.50637160e+07  7.57e-06 2.24e-08  8.70e-08   623s
  52   3.50637161e+07  3.50637160e+07  1.97e-05 1.55e-08  7.99e-08   632s
  53   3.50637160e+07  3.50637160e+07  1.58e-06 1.21e-08  6.50e-09   642s

Barrier solved model in 53 iterations and 641.54 seconds (624.55 work units)
Optimal objective 3.50637160e+07


Root crossover log...

  317202 DPushes remaining with DInf 0.0000000e+00               643s
  122100 DPushes remaining with DInf 0.0000000e+00               650s
   85243 DPushes remaining with DInf 0.0000000e+00               656s
   54343 DPushes remaining with DInf 0.0000000e+00               662s
   39960 DPushes remaining with DInf 0.0000000e+00               665s
   21794 DPushes remaining with DInf 0.0000000e+00               671s
   12798 DPushes remaining with DInf 0.0000000e+00               675s
    4615 DPushes remaining with DInf 0.0000000e+00               680s
       0 DPushes remaining with DInf 0.0000000e+00               684s

   15799 PPushes remaining with PInf 1.3681947e-06               684s
    8914 PPushes remaining with PInf 5.9868612e-06               685s
       0 PPushes remaining with PInf 0.0000000e+00               689s

  Push phase complete: Pinf 0.0000000e+00, Dinf 4.4687751e-07    689s


Root simplex log...

Iteration    Objective       Primal Inf.    Dual Inf.      Time
  162635    3.5063716e+07   0.000000e+00   0.000000e+00    690s
  162635    3.5063716e+07   0.000000e+00   0.000000e+00    691s
Waiting for other threads to finish...         758s
Waiting for other threads to finish...         825s
Waiting for other threads to finish...         891s
Waiting for other threads to finish...         958s
Waiting for other threads to finish...        1024s
Waiting for other threads to finish...        1091s
Waiting for other threads to finish...        1157s
Waiting for other threads to finish...        1224s
Waiting for other threads to finish...        1290s
Waiting for other threads to finish...        1356s
Waiting for other threads to finish...        1423s
Concurrent spin time: 747.00s (can be avoided by choosing Method=3)

Solved with barrier

Root relaxation: objective 3.506372e+07, 162635 iterations, 1398.57 seconds (612.86 work units)
Total elapsed time = 1445.75s (DegenMoves)

    Nodes    |    Current Node    |     Objective Bounds      |     Work
 Expl Unexpl |  Obj  Depth IntInf | Incumbent    BestBd   Gap | It/Node Time

     0     0 3.5064e+07    0  169          - 3.5064e+07      -     - 1458s
H    0     0                    3.573735e+07 3.5064e+07  1.88%     - 1492s
     0     0 3.5097e+07    0  198 3.5737e+07 3.5097e+07  1.79%     - 1805s
     0     0 3.5097e+07    0  196 3.5737e+07 3.5097e+07  1.79%     - 1878s
     0     0 3.5097e+07    0  195 3.5737e+07 3.5097e+07  1.79%     - 1884s
     0     0 3.5098e+07    0  197 3.5737e+07 3.5098e+07  1.79%     - 1891s
     0     0 3.5098e+07    0  196 3.5737e+07 3.5098e+07  1.79%     - 1896s
     0     0 3.5098e+07    0  192 3.5737e+07 3.5098e+07  1.79%     - 1901s
     0     0 3.5104e+07    0  159 3.5737e+07 3.5104e+07  1.77%     - 1973s
     0     0 3.5104e+07    0  159 3.5737e+07 3.5104e+07  1.77%     - 2036s
     0     0 3.5104e+07    0  159 3.5737e+07 3.5104e+07  1.77%     - 2041s
     0     0 3.5107e+07    0  133 3.5737e+07 3.5107e+07  1.76%     - 2095s
     0     0 3.5109e+07    0  132 3.5737e+07 3.5109e+07  1.76%     - 2185s
     0     0 3.5109e+07    0  132 3.5737e+07 3.5109e+07  1.76%     - 2190s
     0     0 3.5109e+07    0  121 3.5737e+07 3.5109e+07  1.76%     - 2225s
     0     0 3.5109e+07    0  121 3.5737e+07 3.5109e+07  1.76%     - 2280s
     0     0 3.5109e+07    0  121 3.5737e+07 3.5109e+07  1.76%     - 2303s
     0     0 3.5109e+07    0  121 3.5737e+07 3.5109e+07  1.76%     - 2377s
     0     2 3.5109e+07    0  121 3.5737e+07 3.5109e+07  1.76%     - 2514s
     1     4 3.5139e+07    1  121 3.5737e+07 3.5109e+07  1.76%  8907 2591s
     3     8 3.5204e+07    2  148 3.5737e+07 3.5130e+07  1.70% 16034 2722s
     7    16 3.5260e+07    3  159 3.5737e+07 3.5135e+07  1.69% 14613 2883s
    15    32 3.5313e+07    4  141 3.5737e+07 3.5136e+07  1.68% 11077 3093s
    31    52 3.5315e+07    5  136 3.5737e+07 3.5145e+07  1.66% 13121 5532s
H   40    52                    3.573735e+07 3.5146e+07  1.66% 30535 5532s
H   41    52                    3.542806e+07 3.5146e+07  0.80% 29955 5533s

Cutting planes:
  Gomory: 8
  Implied bound: 784
  MIR: 62
  Flow cover: 2735
  Relax-and-lift: 149

Explored 51 nodes (1556590 simplex iterations) in 5534.15 seconds (3524.44 work units)
Thread count was 20 (of 80 available processors)

Solution count 3: 3.54281e+07 3.54281e+07 3.57374e+07 

Optimal solution found (tolerance 1.00e-02)
Warning: max bound violation (2.6982e-06) exceeds tolerance
Best objective 3.542805555931e+07, best bound 3.514554556715e+07, gap 0.7974%

User-callback calls 3036902, time in user-callback 11.69 sec
